(set-option :produce-models true); benchmark generated from python API
(set-info :status unknown)
(declare-fun l_1_0_5 () Real)
(declare-fun l_1_0_4 () Real)
(declare-fun l_1_0_3 () Real)
(declare-fun l_1_0_15 () Real)
(declare-fun l_1_0_14 () Real)
(declare-fun _a_0_ () Real)
(declare-fun l_1_0_9 () Real)
(declare-fun l_1_0_18 () Real)
(declare-fun l_1_0_13 () Real)
(declare-fun l_1_0_10 () Real)
(declare-fun _a_7_ () Real)
(declare-fun _a_1_ () Real)
(declare-fun l_1_0_2 () Real)
(declare-fun l_1_0_16 () Real)
(declare-fun l_1_0_12 () Real)
(declare-fun l_1_0_1 () Real)
(declare-fun _a_6_ () Real)
(declare-fun _a_4_ () Real)
(declare-fun _a_3_ () Real)
(declare-fun l_1_0_6 () Real)
(declare-fun l_1_0_19 () Real)
(declare-fun l_1_0_17 () Real)
(declare-fun l_1_0_11 () Real)
(declare-fun _a_5_ () Real)
(declare-fun l_1_0_7 () Real)
(declare-fun l_1_0_8 () Real)
(declare-fun l_1_0_20 () Real)
(declare-fun l_1_1_5 () Real)
(declare-fun l_1_1_4 () Real)
(declare-fun l_1_1_3 () Real)
(declare-fun l_1_1_2 () Real)
(declare-fun l_1_1_1 () Real)
(declare-fun l_1_1_33 () Real)
(declare-fun l_1_1_20 () Real)
(declare-fun _a_2_ () Real)
(declare-fun l_1_1_15 () Real)
(declare-fun l_1_1_11 () Real)
(declare-fun l_1_1_26 () Real)
(declare-fun l_1_1_8 () Real)
(declare-fun l_1_1_6 () Real)
(declare-fun l_1_1_7 () Real)
(declare-fun l_1_1_9 () Real)
(declare-fun l_1_1_12 () Real)
(declare-fun l_1_1_16 () Real)
(declare-fun l_1_1_21 () Real)
(declare-fun l_1_1_27 () Real)
(declare-fun l_1_1_34 () Real)
(declare-fun l_1_1_10 () Real)
(declare-fun l_1_1_13 () Real)
(declare-fun l_1_1_17 () Real)
(declare-fun l_1_1_22 () Real)
(declare-fun l_1_1_28 () Real)
(declare-fun l_1_1_35 () Real)
(declare-fun l_1_1_14 () Real)
(declare-fun l_1_1_18 () Real)
(declare-fun l_1_1_23 () Real)
(declare-fun l_1_1_29 () Real)
(declare-fun l_1_1_36 () Real)
(declare-fun l_1_1_19 () Real)
(declare-fun l_1_1_24 () Real)
(declare-fun l_1_1_30 () Real)
(declare-fun l_1_1_37 () Real)
(declare-fun l_1_1_25 () Real)
(declare-fun l_1_1_31 () Real)
(declare-fun l_1_1_38 () Real)
(declare-fun l_1_1_32 () Real)
(declare-fun l_1_1_39 () Real)
(declare-fun l_1_1_40 () Real)
(declare-fun l_1_2_6 () Real)
(declare-fun l_1_2_5 () Real)
(declare-fun l_1_2_4 () Real)
(declare-fun l_1_2_2 () Real)
(declare-fun l_1_2_1 () Real)
(declare-fun l_1_2_34 () Real)
(declare-fun l_1_2_3 () Real)
(declare-fun l_1_2_16 () Real)
(declare-fun l_1_2_21 () Real)
(declare-fun l_1_2_9 () Real)
(declare-fun l_1_2_12 () Real)
(declare-fun l_1_2_27 () Real)
(declare-fun l_1_2_7 () Real)
(declare-fun l_1_2_8 () Real)
(declare-fun l_1_2_10 () Real)
(declare-fun l_1_2_13 () Real)
(declare-fun l_1_2_17 () Real)
(declare-fun l_1_2_22 () Real)
(declare-fun l_1_2_28 () Real)
(declare-fun l_1_2_35 () Real)
(declare-fun l_1_2_11 () Real)
(declare-fun l_1_2_14 () Real)
(declare-fun l_1_2_18 () Real)
(declare-fun l_1_2_23 () Real)
(declare-fun l_1_2_29 () Real)
(declare-fun l_1_2_36 () Real)
(declare-fun l_1_2_15 () Real)
(declare-fun l_1_2_19 () Real)
(declare-fun l_1_2_24 () Real)
(declare-fun l_1_2_30 () Real)
(declare-fun l_1_2_37 () Real)
(declare-fun l_1_2_20 () Real)
(declare-fun l_1_2_25 () Real)
(declare-fun l_1_2_31 () Real)
(declare-fun l_1_2_38 () Real)
(declare-fun l_1_2_26 () Real)
(declare-fun l_1_2_32 () Real)
(declare-fun l_1_2_39 () Real)
(declare-fun l_1_2_33 () Real)
(declare-fun l_1_2_40 () Real)
(declare-fun l_1_2_41 () Real)
(declare-fun l_1_3_6 () Real)
(declare-fun l_1_3_5 () Real)
(declare-fun l_1_3_4 () Real)
(declare-fun l_1_3_2 () Real)
(declare-fun l_1_3_1 () Real)
(declare-fun l_1_3_34 () Real)
(declare-fun l_1_3_3 () Real)
(declare-fun l_1_3_21 () Real)
(declare-fun l_1_3_16 () Real)
(declare-fun l_1_3_12 () Real)
(declare-fun l_1_3_27 () Real)
(declare-fun l_1_3_9 () Real)
(declare-fun l_1_3_7 () Real)
(declare-fun l_1_3_8 () Real)
(declare-fun l_1_3_10 () Real)
(declare-fun l_1_3_13 () Real)
(declare-fun l_1_3_17 () Real)
(declare-fun l_1_3_22 () Real)
(declare-fun l_1_3_28 () Real)
(declare-fun l_1_3_35 () Real)
(declare-fun l_1_3_11 () Real)
(declare-fun l_1_3_14 () Real)
(declare-fun l_1_3_18 () Real)
(declare-fun l_1_3_23 () Real)
(declare-fun l_1_3_29 () Real)
(declare-fun l_1_3_36 () Real)
(declare-fun l_1_3_15 () Real)
(declare-fun l_1_3_19 () Real)
(declare-fun l_1_3_24 () Real)
(declare-fun l_1_3_30 () Real)
(declare-fun l_1_3_37 () Real)
(declare-fun l_1_3_20 () Real)
(declare-fun l_1_3_25 () Real)
(declare-fun l_1_3_31 () Real)
(declare-fun l_1_3_38 () Real)
(declare-fun l_1_3_26 () Real)
(declare-fun l_1_3_32 () Real)
(declare-fun l_1_3_39 () Real)
(declare-fun l_1_3_33 () Real)
(declare-fun l_1_3_40 () Real)
(declare-fun l_1_3_41 () Real)
(assert
 (let ((?x39 (- (- (- (- _a_0_ l_1_0_14) (* l_1_0_15 l_1_0_15)) l_1_0_3) l_1_0_4)))
 (= (- ?x39 l_1_0_5) 0.0)))
(assert
 (let ((?x433 (- (- (- (+ _a_1_ _a_7_) l_1_0_10) l_1_0_13) (* (* 2.0 l_1_0_15) l_1_0_18))))
 (= (- ?x433 l_1_0_9) 0.0)))
(assert
 (let ((?x379 (- (- (- (+ (+ _a_3_ _a_4_) _a_6_) l_1_0_1) l_1_0_12) (* (* 2.0 l_1_0_15) l_1_0_16))))
 (= (- ?x379 l_1_0_2) 0.0)))
(assert
 (let ((?x333 (- (- (- _a_5_ l_1_0_11) (* (* 2.0 l_1_0_16) l_1_0_18)) (* (* 2.0 l_1_0_17) l_1_0_19))))
 (= (- ?x333 l_1_0_6) 0.0)))
(assert
 (let ((?x19 (- (- (* (- l_1_0_16) l_1_0_16) (* l_1_0_17 l_1_0_17)) l_1_0_7)))
 (= ?x19 0.0)))
(assert
 (let ((?x249 (* l_1_0_20 l_1_0_20)))
 (let ((?x251 (- (- (- (* (- l_1_0_18) l_1_0_18) (* l_1_0_19 l_1_0_19)) ?x249) l_1_0_8)))
 (= ?x251 0.0))))
(assert
 (>= l_1_0_1 0.0))
(assert
 (>= l_1_0_2 0.0))
(assert
 (>= l_1_0_3 0.0))
(assert
 (>= l_1_0_4 0.0))
(assert
 (>= l_1_0_5 0.0))
(assert
 (>= l_1_0_6 0.0))
(assert
 (>= l_1_0_7 0.0))
(assert
 (>= l_1_0_8 0.0))
(assert
 (>= l_1_0_9 0.0))
(assert
 (>= l_1_0_10 0.0))
(assert
 (>= l_1_0_11 0.0))
(assert
 (>= l_1_0_12 0.0))
(assert
 (>= l_1_0_13 0.0))
(assert
 (>= l_1_0_14 0.0))
(assert
 (>= l_1_0_15 0.0))
(assert
 (>= l_1_0_17 0.0))
(assert
 (>= l_1_0_20 0.0))
(assert
 (let ((?x175 (* l_1_1_5 l_1_1_5)))
 (let ((?x174 (- (- (+ (* (- _a_0_) l_1_1_1) (* 1.0 l_1_1_2)) l_1_1_3) l_1_1_4)))
 (= (+ (- ?x174 ?x175) 1.0) 0.0))))
(assert
 (= (- (* (- _a_1_) l_1_1_1) (* (* 2.0 l_1_1_33) l_1_1_5)) 0.0))
(assert
 (= (- (* (- _a_2_) l_1_1_1) (* (* 2.0 l_1_1_20) l_1_1_5)) 0.0))
(assert
 (= (- (* (- _a_3_) l_1_1_1) (* (* 2.0 l_1_1_15) l_1_1_5)) 0.0))
(assert
 (= (- (* (- _a_4_) l_1_1_1) (* (* 2.0 l_1_1_11) l_1_1_5)) 0.0))
(assert
 (= (- (* (- _a_5_) l_1_1_1) (* (* 2.0 l_1_1_26) l_1_1_5)) 0.0))
(assert
 (= (- (* (- _a_6_) l_1_1_1) (* (* 2.0 l_1_1_5) l_1_1_8)) 0.0))
(assert
 (= (- (* (- _a_7_) l_1_1_1) (* (* 2.0 l_1_1_5) l_1_1_6)) 0.0))
(assert
 (= (- (* (- l_1_1_6) l_1_1_6) (* l_1_1_7 l_1_1_7)) 0.0))
(assert
 (let ((?x67 (- (* (* (- 2.0) l_1_1_6) l_1_1_8) (* (* 2.0 l_1_1_7) l_1_1_9))))
 (= ?x67 0.0)))
(assert
 (let ((?x507 (- (* (* (- 2.0) l_1_1_11) l_1_1_6) (* (* 2.0 l_1_1_12) l_1_1_7))))
 (= ?x507 0.0)))
(assert
 (let ((?x524 (- (* (* (- 2.0) l_1_1_15) l_1_1_6) (* (* 2.0 l_1_1_16) l_1_1_7))))
 (= ?x524 0.0)))
(assert
 (let ((?x541 (- (* (* (- 2.0) l_1_1_20) l_1_1_6) (* (* 2.0 l_1_1_21) l_1_1_7))))
 (= ?x541 0.0)))
(assert
 (let ((?x558 (- (* (* (- 2.0) l_1_1_26) l_1_1_6) (* (* 2.0 l_1_1_27) l_1_1_7))))
 (= ?x558 0.0)))
(assert
 (let ((?x575 (- (* (* (- 2.0) l_1_1_33) l_1_1_6) (* (* 2.0 l_1_1_34) l_1_1_7))))
 (= ?x575 0.0)))
(assert
 (let ((?x592 (* l_1_1_9 l_1_1_9)))
 (= (- (- (* (- l_1_1_10) l_1_1_10) (* l_1_1_8 l_1_1_8)) ?x592) 0.0)))
(assert
 (let ((?x609 (- (* (* (- 2.0) l_1_1_10) l_1_1_13) (* (* 2.0 l_1_1_11) l_1_1_8))))
 (= (- ?x609 (* (* 2.0 l_1_1_12) l_1_1_9)) 0.0)))
(assert
 (let ((?x632 (- (* (* (- 2.0) l_1_1_10) l_1_1_17) (* (* 2.0 l_1_1_15) l_1_1_8))))
 (= (- ?x632 (* (* 2.0 l_1_1_16) l_1_1_9)) 0.0)))
(assert
 (let ((?x655 (- (* (* (- 2.0) l_1_1_10) l_1_1_22) (* (* 2.0 l_1_1_20) l_1_1_8))))
 (= (- ?x655 (* (* 2.0 l_1_1_21) l_1_1_9)) 0.0)))
(assert
 (let ((?x678 (- (* (* (- 2.0) l_1_1_10) l_1_1_28) (* (* 2.0 l_1_1_26) l_1_1_8))))
 (= (- ?x678 (* (* 2.0 l_1_1_27) l_1_1_9)) 0.0)))
(assert
 (let ((?x701 (- (* (* (- 2.0) l_1_1_10) l_1_1_35) (* (* 2.0 l_1_1_33) l_1_1_8))))
 (= (- ?x701 (* (* 2.0 l_1_1_34) l_1_1_9)) 0.0)))
(assert
 (let ((?x728 (* l_1_1_14 l_1_1_14)))
 (let ((?x726 (* l_1_1_13 l_1_1_13)))
 (let ((?x729 (- (- (- (* (- l_1_1_11) l_1_1_11) (* l_1_1_12 l_1_1_12)) ?x726) ?x728)))
 (= ?x729 0.0)))))
(assert
 (let ((?x747 (- (* (* (- 2.0) l_1_1_11) l_1_1_15) (* (* 2.0 l_1_1_12) l_1_1_16))))
 (let ((?x753 (- (- ?x747 (* (* 2.0 l_1_1_13) l_1_1_17)) (* (* 2.0 l_1_1_14) l_1_1_18))))
 (= ?x753 0.0))))
(assert
 (let ((?x780 (- (* (* (- 2.0) l_1_1_11) l_1_1_20) (* (* 2.0 l_1_1_12) l_1_1_21))))
 (let ((?x784 (- (- ?x780 (* (* 2.0 l_1_1_13) l_1_1_22)) (* (* 2.0 l_1_1_14) l_1_1_23))))
 (= ?x784 0.0))))
(assert
 (let ((?x811 (- (* (* (- 2.0) l_1_1_11) l_1_1_26) (* (* 2.0 l_1_1_12) l_1_1_27))))
 (let ((?x815 (- (- ?x811 (* (* 2.0 l_1_1_13) l_1_1_28)) (* (* 2.0 l_1_1_14) l_1_1_29))))
 (= ?x815 0.0))))
(assert
 (let ((?x842 (- (* (* (- 2.0) l_1_1_11) l_1_1_33) (* (* 2.0 l_1_1_12) l_1_1_34))))
 (let ((?x846 (- (- ?x842 (* (* 2.0 l_1_1_13) l_1_1_35)) (* (* 2.0 l_1_1_14) l_1_1_36))))
 (= ?x846 0.0))))
(assert
 (let ((?x879 (* l_1_1_19 l_1_1_19)))
 (let ((?x877 (* l_1_1_18 l_1_1_18)))
 (let ((?x875 (* l_1_1_17 l_1_1_17)))
 (let ((?x878 (- (- (- (* (- l_1_1_15) l_1_1_15) (* l_1_1_16 l_1_1_16)) ?x875) ?x877)))
 (= (- ?x878 ?x879) 0.0))))))
(assert
 (let ((?x901 (- (* (* (- 2.0) l_1_1_15) l_1_1_20) (* (* 2.0 l_1_1_16) l_1_1_21))))
 (let ((?x907 (- (- ?x901 (* (* 2.0 l_1_1_17) l_1_1_22)) (* (* 2.0 l_1_1_18) l_1_1_23))))
 (= (- ?x907 (* (* 2.0 l_1_1_19) l_1_1_24)) 0.0))))
(assert
 (let ((?x943 (- (* (* (- 2.0) l_1_1_15) l_1_1_26) (* (* 2.0 l_1_1_16) l_1_1_27))))
 (let ((?x947 (- (- ?x943 (* (* 2.0 l_1_1_17) l_1_1_28)) (* (* 2.0 l_1_1_18) l_1_1_29))))
 (= (- ?x947 (* (* 2.0 l_1_1_19) l_1_1_30)) 0.0))))
(assert
 (let ((?x982 (- (* (* (- 2.0) l_1_1_15) l_1_1_33) (* (* 2.0 l_1_1_16) l_1_1_34))))
 (let ((?x986 (- (- ?x982 (* (* 2.0 l_1_1_17) l_1_1_35)) (* (* 2.0 l_1_1_18) l_1_1_36))))
 (= (- ?x986 (* (* 2.0 l_1_1_19) l_1_1_37)) 0.0))))
(assert
 (let ((?x1029 (* l_1_1_25 l_1_1_25)))
 (let ((?x1027 (* l_1_1_24 l_1_1_24)))
 (let ((?x1025 (* l_1_1_23 l_1_1_23)))
 (let ((?x1023 (* l_1_1_22 l_1_1_22)))
 (let ((?x1026 (- (- (- (* (- l_1_1_20) l_1_1_20) (* l_1_1_21 l_1_1_21)) ?x1023) ?x1025)))
 (= (- (- ?x1026 ?x1027) ?x1029) 0.0)))))))
(assert
 (let ((?x1054 (- (* (* (- 2.0) l_1_1_20) l_1_1_26) (* (* 2.0 l_1_1_21) l_1_1_27))))
 (let ((?x1060 (- (- ?x1054 (* (* 2.0 l_1_1_22) l_1_1_28)) (* (* 2.0 l_1_1_23) l_1_1_29))))
 (let ((?x1066 (- (- ?x1060 (* (* 2.0 l_1_1_24) l_1_1_30)) (* (* 2.0 l_1_1_25) l_1_1_31))))
 (= ?x1066 0.0)))))
(assert
 (let ((?x1105 (- (* (* (- 2.0) l_1_1_20) l_1_1_33) (* (* 2.0 l_1_1_21) l_1_1_34))))
 (let ((?x1109 (- (- ?x1105 (* (* 2.0 l_1_1_22) l_1_1_35)) (* (* 2.0 l_1_1_23) l_1_1_36))))
 (let ((?x1113 (- (- ?x1109 (* (* 2.0 l_1_1_24) l_1_1_37)) (* (* 2.0 l_1_1_25) l_1_1_38))))
 (= ?x1113 0.0)))))
(assert
 (let ((?x1162 (* l_1_1_32 l_1_1_32)))
 (let ((?x1160 (* l_1_1_31 l_1_1_31)))
 (let ((?x1158 (* l_1_1_30 l_1_1_30)))
 (let ((?x1156 (* l_1_1_29 l_1_1_29)))
 (let ((?x1154 (* l_1_1_28 l_1_1_28)))
 (let ((?x1157 (- (- (- (* (- l_1_1_26) l_1_1_26) (* l_1_1_27 l_1_1_27)) ?x1154) ?x1156)))
 (= (- (- (- ?x1157 ?x1158) ?x1160) ?x1162) 0.0))))))))
(assert
 (let ((?x1190 (- (* (* (- 2.0) l_1_1_26) l_1_1_33) (* (* 2.0 l_1_1_27) l_1_1_34))))
 (let ((?x1196 (- (- ?x1190 (* (* 2.0 l_1_1_28) l_1_1_35)) (* (* 2.0 l_1_1_29) l_1_1_36))))
 (let ((?x1202 (- (- ?x1196 (* (* 2.0 l_1_1_30) l_1_1_37)) (* (* 2.0 l_1_1_31) l_1_1_38))))
 (= (- ?x1202 (* (* 2.0 l_1_1_32) l_1_1_39)) 0.0)))))
(assert
 (let ((?x1262 (* l_1_1_40 l_1_1_40)))
 (let ((?x1260 (* l_1_1_39 l_1_1_39)))
 (let ((?x1258 (* l_1_1_38 l_1_1_38)))
 (let ((?x1256 (* l_1_1_37 l_1_1_37)))
 (let ((?x1254 (* l_1_1_36 l_1_1_36)))
 (let ((?x1252 (* l_1_1_35 l_1_1_35)))
 (let ((?x1255 (- (- (- (* (- l_1_1_33) l_1_1_33) (* l_1_1_34 l_1_1_34)) ?x1252) ?x1254)))
 (= (- (- (- (- ?x1255 ?x1256) ?x1258) ?x1260) ?x1262) 0.0)))))))))
(assert
 (>= l_1_1_1 0.0))
(assert
 (>= l_1_1_2 0.0))
(assert
 (>= l_1_1_3 0.0))
(assert
 (>= l_1_1_4 0.0))
(assert
 (>= l_1_1_5 0.0))
(assert
 (>= l_1_1_7 0.0))
(assert
 (>= l_1_1_10 0.0))
(assert
 (>= l_1_1_14 0.0))
(assert
 (>= l_1_1_19 0.0))
(assert
 (>= l_1_1_25 0.0))
(assert
 (>= l_1_1_32 0.0))
(assert
 (>= l_1_1_40 0.0))
(assert
 (let ((?x1309 (* l_1_2_6 l_1_2_6)))
 (let ((?x1307 (- (- (+ (* (- _a_0_) l_1_2_1) _a_0_) (* 1.0 l_1_2_2)) l_1_2_4)))
 (= (- (- ?x1307 l_1_2_5) ?x1309) 0.0))))
(assert
 (let ((?x1333 (- (- (+ (* (- _a_1_) l_1_2_1) _a_1_) l_1_2_3) (* (* 2.0 l_1_2_34) l_1_2_6))))
 (= ?x1333 0.0)))
(assert
 (let ((?x1353 (- (+ (- (- _a_1_) (* _a_3_ l_1_2_1)) _a_3_) (* (* 2.0 l_1_2_16) l_1_2_6))))
 (= (+ ?x1353 l_1_2_3) 0.0)))
(assert
 (let ((?x1371 (- (+ (* (- _a_2_) l_1_2_1) _a_2_) (* (* 2.0 l_1_2_21) l_1_2_6))))
 (= ?x1371 0.0)))
(assert
 (let ((?x1388 (- (+ (- _a_2_ (* _a_6_ l_1_2_1)) _a_6_) (* (* 2.0 l_1_2_6) l_1_2_9))))
 (= ?x1388 0.0)))
(assert
 (let ((?x1404 (- (+ (* (- _a_4_) l_1_2_1) _a_4_) (* (* 2.0 l_1_2_12) l_1_2_6))))
 (= ?x1404 0.0)))
(assert
 (let ((?x1420 (- (+ (* (- _a_5_) l_1_2_1) _a_5_) (* (* 2.0 l_1_2_27) l_1_2_6))))
 (= ?x1420 0.0)))
(assert
 (let ((?x1435 (- (+ (* (- _a_7_) l_1_2_1) _a_7_) (* (* 2.0 l_1_2_6) l_1_2_7))))
 (= ?x1435 0.0)))
(assert
 (= (- (* (- l_1_2_7) l_1_2_7) (* l_1_2_8 l_1_2_8)) 0.0))
(assert
 (let ((?x1464 (- (* (* (- 2.0) l_1_2_10) l_1_2_8) (* (* 2.0 l_1_2_7) l_1_2_9))))
 (= ?x1464 0.0)))
(assert
 (let ((?x1481 (- (* (* (- 2.0) l_1_2_12) l_1_2_7) (* (* 2.0 l_1_2_13) l_1_2_8))))
 (= ?x1481 0.0)))
(assert
 (let ((?x1498 (- (* (* (- 2.0) l_1_2_16) l_1_2_7) (* (* 2.0 l_1_2_17) l_1_2_8))))
 (= ?x1498 0.0)))
(assert
 (let ((?x1515 (- (* (* (- 2.0) l_1_2_21) l_1_2_7) (* (* 2.0 l_1_2_22) l_1_2_8))))
 (= ?x1515 0.0)))
(assert
 (let ((?x1532 (- (* (* (- 2.0) l_1_2_27) l_1_2_7) (* (* 2.0 l_1_2_28) l_1_2_8))))
 (= ?x1532 0.0)))
(assert
 (let ((?x1549 (- (* (* (- 2.0) l_1_2_34) l_1_2_7) (* (* 2.0 l_1_2_35) l_1_2_8))))
 (= ?x1549 0.0)))
(assert
 (let ((?x1566 (* l_1_2_9 l_1_2_9)))
 (= (- (- (* (- l_1_2_10) l_1_2_10) (* l_1_2_11 l_1_2_11)) ?x1566) 0.0)))
(assert
 (let ((?x1583 (- (* (* (- 2.0) l_1_2_10) l_1_2_13) (* (* 2.0 l_1_2_11) l_1_2_14))))
 (= (- ?x1583 (* (* 2.0 l_1_2_12) l_1_2_9)) 0.0)))
(assert
 (let ((?x1606 (- (* (* (- 2.0) l_1_2_10) l_1_2_17) (* (* 2.0 l_1_2_11) l_1_2_18))))
 (= (- ?x1606 (* (* 2.0 l_1_2_16) l_1_2_9)) 0.0)))
(assert
 (let ((?x1629 (- (* (* (- 2.0) l_1_2_10) l_1_2_22) (* (* 2.0 l_1_2_11) l_1_2_23))))
 (= (- ?x1629 (* (* 2.0 l_1_2_21) l_1_2_9)) 0.0)))
(assert
 (let ((?x1652 (- (* (* (- 2.0) l_1_2_10) l_1_2_28) (* (* 2.0 l_1_2_11) l_1_2_29))))
 (= (- ?x1652 (* (* 2.0 l_1_2_27) l_1_2_9)) 0.0)))
(assert
 (let ((?x1675 (- (* (* (- 2.0) l_1_2_10) l_1_2_35) (* (* 2.0 l_1_2_11) l_1_2_36))))
 (= (- ?x1675 (* (* 2.0 l_1_2_34) l_1_2_9)) 0.0)))
(assert
 (let ((?x1702 (* l_1_2_15 l_1_2_15)))
 (let ((?x1700 (* l_1_2_14 l_1_2_14)))
 (let ((?x1703 (- (- (- (* (- l_1_2_12) l_1_2_12) (* l_1_2_13 l_1_2_13)) ?x1700) ?x1702)))
 (= ?x1703 0.0)))))
(assert
 (let ((?x1721 (- (* (* (- 2.0) l_1_2_12) l_1_2_16) (* (* 2.0 l_1_2_13) l_1_2_17))))
 (let ((?x1727 (- (- ?x1721 (* (* 2.0 l_1_2_14) l_1_2_18)) (* (* 2.0 l_1_2_15) l_1_2_19))))
 (= ?x1727 0.0))))
(assert
 (let ((?x1754 (- (* (* (- 2.0) l_1_2_12) l_1_2_21) (* (* 2.0 l_1_2_13) l_1_2_22))))
 (let ((?x1758 (- (- ?x1754 (* (* 2.0 l_1_2_14) l_1_2_23)) (* (* 2.0 l_1_2_15) l_1_2_24))))
 (= ?x1758 0.0))))
(assert
 (let ((?x1785 (- (* (* (- 2.0) l_1_2_12) l_1_2_27) (* (* 2.0 l_1_2_13) l_1_2_28))))
 (let ((?x1789 (- (- ?x1785 (* (* 2.0 l_1_2_14) l_1_2_29)) (* (* 2.0 l_1_2_15) l_1_2_30))))
 (= ?x1789 0.0))))
(assert
 (let ((?x1816 (- (* (* (- 2.0) l_1_2_12) l_1_2_34) (* (* 2.0 l_1_2_13) l_1_2_35))))
 (let ((?x1820 (- (- ?x1816 (* (* 2.0 l_1_2_14) l_1_2_36)) (* (* 2.0 l_1_2_15) l_1_2_37))))
 (= ?x1820 0.0))))
(assert
 (let ((?x1853 (* l_1_2_20 l_1_2_20)))
 (let ((?x1851 (* l_1_2_19 l_1_2_19)))
 (let ((?x1849 (* l_1_2_18 l_1_2_18)))
 (let ((?x1852 (- (- (- (* (- l_1_2_16) l_1_2_16) (* l_1_2_17 l_1_2_17)) ?x1849) ?x1851)))
 (= (- ?x1852 ?x1853) 0.0))))))
(assert
 (let ((?x1875 (- (* (* (- 2.0) l_1_2_16) l_1_2_21) (* (* 2.0 l_1_2_17) l_1_2_22))))
 (let ((?x1881 (- (- ?x1875 (* (* 2.0 l_1_2_18) l_1_2_23)) (* (* 2.0 l_1_2_19) l_1_2_24))))
 (= (- ?x1881 (* (* 2.0 l_1_2_20) l_1_2_25)) 0.0))))
(assert
 (let ((?x1917 (- (* (* (- 2.0) l_1_2_16) l_1_2_27) (* (* 2.0 l_1_2_17) l_1_2_28))))
 (let ((?x1921 (- (- ?x1917 (* (* 2.0 l_1_2_18) l_1_2_29)) (* (* 2.0 l_1_2_19) l_1_2_30))))
 (= (- ?x1921 (* (* 2.0 l_1_2_20) l_1_2_31)) 0.0))))
(assert
 (let ((?x1956 (- (* (* (- 2.0) l_1_2_16) l_1_2_34) (* (* 2.0 l_1_2_17) l_1_2_35))))
 (let ((?x1960 (- (- ?x1956 (* (* 2.0 l_1_2_18) l_1_2_36)) (* (* 2.0 l_1_2_19) l_1_2_37))))
 (= (- ?x1960 (* (* 2.0 l_1_2_20) l_1_2_38)) 0.0))))
(assert
 (let ((?x2003 (* l_1_2_26 l_1_2_26)))
 (let ((?x2001 (* l_1_2_25 l_1_2_25)))
 (let ((?x1999 (* l_1_2_24 l_1_2_24)))
 (let ((?x1997 (* l_1_2_23 l_1_2_23)))
 (let ((?x2000 (- (- (- (* (- l_1_2_21) l_1_2_21) (* l_1_2_22 l_1_2_22)) ?x1997) ?x1999)))
 (= (- (- ?x2000 ?x2001) ?x2003) 0.0)))))))
(assert
 (let ((?x2028 (- (* (* (- 2.0) l_1_2_21) l_1_2_27) (* (* 2.0 l_1_2_22) l_1_2_28))))
 (let ((?x2034 (- (- ?x2028 (* (* 2.0 l_1_2_23) l_1_2_29)) (* (* 2.0 l_1_2_24) l_1_2_30))))
 (let ((?x2040 (- (- ?x2034 (* (* 2.0 l_1_2_25) l_1_2_31)) (* (* 2.0 l_1_2_26) l_1_2_32))))
 (= ?x2040 0.0)))))
(assert
 (let ((?x2079 (- (* (* (- 2.0) l_1_2_21) l_1_2_34) (* (* 2.0 l_1_2_22) l_1_2_35))))
 (let ((?x2083 (- (- ?x2079 (* (* 2.0 l_1_2_23) l_1_2_36)) (* (* 2.0 l_1_2_24) l_1_2_37))))
 (let ((?x2087 (- (- ?x2083 (* (* 2.0 l_1_2_25) l_1_2_38)) (* (* 2.0 l_1_2_26) l_1_2_39))))
 (= ?x2087 0.0)))))
(assert
 (let ((?x2136 (* l_1_2_33 l_1_2_33)))
 (let ((?x2134 (* l_1_2_32 l_1_2_32)))
 (let ((?x2132 (* l_1_2_31 l_1_2_31)))
 (let ((?x2130 (* l_1_2_30 l_1_2_30)))
 (let ((?x2128 (* l_1_2_29 l_1_2_29)))
 (let ((?x2131 (- (- (- (* (- l_1_2_27) l_1_2_27) (* l_1_2_28 l_1_2_28)) ?x2128) ?x2130)))
 (= (- (- (- ?x2131 ?x2132) ?x2134) ?x2136) 0.0))))))))
(assert
 (let ((?x2164 (- (* (* (- 2.0) l_1_2_27) l_1_2_34) (* (* 2.0 l_1_2_28) l_1_2_35))))
 (let ((?x2170 (- (- ?x2164 (* (* 2.0 l_1_2_29) l_1_2_36)) (* (* 2.0 l_1_2_30) l_1_2_37))))
 (let ((?x2176 (- (- ?x2170 (* (* 2.0 l_1_2_31) l_1_2_38)) (* (* 2.0 l_1_2_32) l_1_2_39))))
 (= (- ?x2176 (* (* 2.0 l_1_2_33) l_1_2_40)) 0.0)))))
(assert
 (let ((?x2236 (* l_1_2_41 l_1_2_41)))
 (let ((?x2234 (* l_1_2_40 l_1_2_40)))
 (let ((?x2232 (* l_1_2_39 l_1_2_39)))
 (let ((?x2230 (* l_1_2_38 l_1_2_38)))
 (let ((?x2228 (* l_1_2_37 l_1_2_37)))
 (let ((?x2226 (* l_1_2_36 l_1_2_36)))
 (let ((?x2229 (- (- (- (* (- l_1_2_34) l_1_2_34) (* l_1_2_35 l_1_2_35)) ?x2226) ?x2228)))
 (= (- (- (- (- ?x2229 ?x2230) ?x2232) ?x2234) ?x2236) 0.0)))))))))
(assert
 (>= l_1_2_1 0.0))
(assert
 (>= l_1_2_2 0.0))
(assert
 (>= l_1_2_3 0.0))
(assert
 (>= l_1_2_4 0.0))
(assert
 (>= l_1_2_5 0.0))
(assert
 (>= l_1_2_6 0.0))
(assert
 (>= l_1_2_8 0.0))
(assert
 (>= l_1_2_11 0.0))
(assert
 (>= l_1_2_15 0.0))
(assert
 (>= l_1_2_20 0.0))
(assert
 (>= l_1_2_26 0.0))
(assert
 (>= l_1_2_33 0.0))
(assert
 (>= l_1_2_41 0.0))
(assert
 (let ((?x2284 (* l_1_3_6 l_1_3_6)))
 (let ((?x2282 (- (- (+ (* (- _a_0_) l_1_3_1) _a_0_) (* 1.0 l_1_3_2)) l_1_3_4)))
 (= (- (- ?x2282 l_1_3_5) ?x2284) 0.0))))
(assert
 (let ((?x2309 (- (+ (- (+ (* (- _a_1_) l_1_3_1) _a_1_) _a_3_) l_1_3_3) (* (* 2.0 l_1_3_34) l_1_3_6))))
 (= ?x2309 0.0)))
(assert
 (let ((?x2329 (- (+ (+ (* (- _a_2_) l_1_3_1) _a_2_) _a_6_) (* (* 2.0 l_1_3_21) l_1_3_6))))
 (= ?x2329 0.0)))
(assert
 (let ((?x2345 (- (+ (* (- _a_3_) l_1_3_1) _a_3_) (* (* 2.0 l_1_3_16) l_1_3_6))))
 (= (- ?x2345 l_1_3_3) 0.0)))
(assert
 (let ((?x2365 (- (+ (* (- _a_4_) l_1_3_1) _a_4_) (* (* 2.0 l_1_3_12) l_1_3_6))))
 (= ?x2365 0.0)))
(assert
 (let ((?x2381 (- (+ (* (- _a_5_) l_1_3_1) _a_5_) (* (* 2.0 l_1_3_27) l_1_3_6))))
 (= ?x2381 0.0)))
(assert
 (let ((?x2397 (- (+ (* (- _a_6_) l_1_3_1) _a_6_) (* (* 2.0 l_1_3_6) l_1_3_9))))
 (= ?x2397 0.0)))
(assert
 (let ((?x2412 (- (+ (* (- _a_7_) l_1_3_1) _a_7_) (* (* 2.0 l_1_3_6) l_1_3_7))))
 (= ?x2412 0.0)))
(assert
 (= (- (* (- l_1_3_7) l_1_3_7) (* l_1_3_8 l_1_3_8)) 0.0))
(assert
 (let ((?x2441 (- (* (* (- 2.0) l_1_3_10) l_1_3_8) (* (* 2.0 l_1_3_7) l_1_3_9))))
 (= ?x2441 0.0)))
(assert
 (let ((?x2458 (- (* (* (- 2.0) l_1_3_12) l_1_3_7) (* (* 2.0 l_1_3_13) l_1_3_8))))
 (= ?x2458 0.0)))
(assert
 (let ((?x2475 (- (* (* (- 2.0) l_1_3_16) l_1_3_7) (* (* 2.0 l_1_3_17) l_1_3_8))))
 (= ?x2475 0.0)))
(assert
 (let ((?x2492 (- (* (* (- 2.0) l_1_3_21) l_1_3_7) (* (* 2.0 l_1_3_22) l_1_3_8))))
 (= ?x2492 0.0)))
(assert
 (let ((?x2509 (- (* (* (- 2.0) l_1_3_27) l_1_3_7) (* (* 2.0 l_1_3_28) l_1_3_8))))
 (= ?x2509 0.0)))
(assert
 (let ((?x2526 (- (* (* (- 2.0) l_1_3_34) l_1_3_7) (* (* 2.0 l_1_3_35) l_1_3_8))))
 (= ?x2526 0.0)))
(assert
 (let ((?x2543 (* l_1_3_9 l_1_3_9)))
 (= (- (- (* (- l_1_3_10) l_1_3_10) (* l_1_3_11 l_1_3_11)) ?x2543) 0.0)))
(assert
 (let ((?x2560 (- (* (* (- 2.0) l_1_3_10) l_1_3_13) (* (* 2.0 l_1_3_11) l_1_3_14))))
 (= (- ?x2560 (* (* 2.0 l_1_3_12) l_1_3_9)) 0.0)))
(assert
 (let ((?x2583 (- (* (* (- 2.0) l_1_3_10) l_1_3_17) (* (* 2.0 l_1_3_11) l_1_3_18))))
 (= (- ?x2583 (* (* 2.0 l_1_3_16) l_1_3_9)) 0.0)))
(assert
 (let ((?x2606 (- (* (* (- 2.0) l_1_3_10) l_1_3_22) (* (* 2.0 l_1_3_11) l_1_3_23))))
 (= (- ?x2606 (* (* 2.0 l_1_3_21) l_1_3_9)) 0.0)))
(assert
 (let ((?x2629 (- (* (* (- 2.0) l_1_3_10) l_1_3_28) (* (* 2.0 l_1_3_11) l_1_3_29))))
 (= (- ?x2629 (* (* 2.0 l_1_3_27) l_1_3_9)) 0.0)))
(assert
 (let ((?x2652 (- (* (* (- 2.0) l_1_3_10) l_1_3_35) (* (* 2.0 l_1_3_11) l_1_3_36))))
 (= (- ?x2652 (* (* 2.0 l_1_3_34) l_1_3_9)) 0.0)))
(assert
 (let ((?x2679 (* l_1_3_15 l_1_3_15)))
 (let ((?x2677 (* l_1_3_14 l_1_3_14)))
 (let ((?x2680 (- (- (- (* (- l_1_3_12) l_1_3_12) (* l_1_3_13 l_1_3_13)) ?x2677) ?x2679)))
 (= ?x2680 0.0)))))
(assert
 (let ((?x2698 (- (* (* (- 2.0) l_1_3_12) l_1_3_16) (* (* 2.0 l_1_3_13) l_1_3_17))))
 (let ((?x2704 (- (- ?x2698 (* (* 2.0 l_1_3_14) l_1_3_18)) (* (* 2.0 l_1_3_15) l_1_3_19))))
 (= ?x2704 0.0))))
(assert
 (let ((?x2731 (- (* (* (- 2.0) l_1_3_12) l_1_3_21) (* (* 2.0 l_1_3_13) l_1_3_22))))
 (let ((?x2735 (- (- ?x2731 (* (* 2.0 l_1_3_14) l_1_3_23)) (* (* 2.0 l_1_3_15) l_1_3_24))))
 (= ?x2735 0.0))))
(assert
 (let ((?x2762 (- (* (* (- 2.0) l_1_3_12) l_1_3_27) (* (* 2.0 l_1_3_13) l_1_3_28))))
 (let ((?x2766 (- (- ?x2762 (* (* 2.0 l_1_3_14) l_1_3_29)) (* (* 2.0 l_1_3_15) l_1_3_30))))
 (= ?x2766 0.0))))
(assert
 (let ((?x2793 (- (* (* (- 2.0) l_1_3_12) l_1_3_34) (* (* 2.0 l_1_3_13) l_1_3_35))))
 (let ((?x2797 (- (- ?x2793 (* (* 2.0 l_1_3_14) l_1_3_36)) (* (* 2.0 l_1_3_15) l_1_3_37))))
 (= ?x2797 0.0))))
(assert
 (let ((?x2830 (* l_1_3_20 l_1_3_20)))
 (let ((?x2828 (* l_1_3_19 l_1_3_19)))
 (let ((?x2826 (* l_1_3_18 l_1_3_18)))
 (let ((?x2829 (- (- (- (* (- l_1_3_16) l_1_3_16) (* l_1_3_17 l_1_3_17)) ?x2826) ?x2828)))
 (= (- ?x2829 ?x2830) 0.0))))))
(assert
 (let ((?x2852 (- (* (* (- 2.0) l_1_3_16) l_1_3_21) (* (* 2.0 l_1_3_17) l_1_3_22))))
 (let ((?x2858 (- (- ?x2852 (* (* 2.0 l_1_3_18) l_1_3_23)) (* (* 2.0 l_1_3_19) l_1_3_24))))
 (= (- ?x2858 (* (* 2.0 l_1_3_20) l_1_3_25)) 0.0))))
(assert
 (let ((?x2894 (- (* (* (- 2.0) l_1_3_16) l_1_3_27) (* (* 2.0 l_1_3_17) l_1_3_28))))
 (let ((?x2898 (- (- ?x2894 (* (* 2.0 l_1_3_18) l_1_3_29)) (* (* 2.0 l_1_3_19) l_1_3_30))))
 (= (- ?x2898 (* (* 2.0 l_1_3_20) l_1_3_31)) 0.0))))
(assert
 (let ((?x2933 (- (* (* (- 2.0) l_1_3_16) l_1_3_34) (* (* 2.0 l_1_3_17) l_1_3_35))))
 (let ((?x2937 (- (- ?x2933 (* (* 2.0 l_1_3_18) l_1_3_36)) (* (* 2.0 l_1_3_19) l_1_3_37))))
 (= (- ?x2937 (* (* 2.0 l_1_3_20) l_1_3_38)) 0.0))))
(assert
 (let ((?x2980 (* l_1_3_26 l_1_3_26)))
 (let ((?x2978 (* l_1_3_25 l_1_3_25)))
 (let ((?x2976 (* l_1_3_24 l_1_3_24)))
 (let ((?x2974 (* l_1_3_23 l_1_3_23)))
 (let ((?x2977 (- (- (- (* (- l_1_3_21) l_1_3_21) (* l_1_3_22 l_1_3_22)) ?x2974) ?x2976)))
 (= (- (- ?x2977 ?x2978) ?x2980) 0.0)))))))
(assert
 (let ((?x3005 (- (* (* (- 2.0) l_1_3_21) l_1_3_27) (* (* 2.0 l_1_3_22) l_1_3_28))))
 (let ((?x3011 (- (- ?x3005 (* (* 2.0 l_1_3_23) l_1_3_29)) (* (* 2.0 l_1_3_24) l_1_3_30))))
 (let ((?x3017 (- (- ?x3011 (* (* 2.0 l_1_3_25) l_1_3_31)) (* (* 2.0 l_1_3_26) l_1_3_32))))
 (= ?x3017 0.0)))))
(assert
 (let ((?x3056 (- (* (* (- 2.0) l_1_3_21) l_1_3_34) (* (* 2.0 l_1_3_22) l_1_3_35))))
 (let ((?x3060 (- (- ?x3056 (* (* 2.0 l_1_3_23) l_1_3_36)) (* (* 2.0 l_1_3_24) l_1_3_37))))
 (let ((?x3064 (- (- ?x3060 (* (* 2.0 l_1_3_25) l_1_3_38)) (* (* 2.0 l_1_3_26) l_1_3_39))))
 (= ?x3064 0.0)))))
(assert
 (let ((?x3113 (* l_1_3_33 l_1_3_33)))
 (let ((?x3111 (* l_1_3_32 l_1_3_32)))
 (let ((?x3109 (* l_1_3_31 l_1_3_31)))
 (let ((?x3107 (* l_1_3_30 l_1_3_30)))
 (let ((?x3105 (* l_1_3_29 l_1_3_29)))
 (let ((?x3108 (- (- (- (* (- l_1_3_27) l_1_3_27) (* l_1_3_28 l_1_3_28)) ?x3105) ?x3107)))
 (= (- (- (- ?x3108 ?x3109) ?x3111) ?x3113) 0.0))))))))
(assert
 (let ((?x3141 (- (* (* (- 2.0) l_1_3_27) l_1_3_34) (* (* 2.0 l_1_3_28) l_1_3_35))))
 (let ((?x3147 (- (- ?x3141 (* (* 2.0 l_1_3_29) l_1_3_36)) (* (* 2.0 l_1_3_30) l_1_3_37))))
 (let ((?x3153 (- (- ?x3147 (* (* 2.0 l_1_3_31) l_1_3_38)) (* (* 2.0 l_1_3_32) l_1_3_39))))
 (= (- ?x3153 (* (* 2.0 l_1_3_33) l_1_3_40)) 0.0)))))
(assert
 (let ((?x3213 (* l_1_3_41 l_1_3_41)))
 (let ((?x3211 (* l_1_3_40 l_1_3_40)))
 (let ((?x3209 (* l_1_3_39 l_1_3_39)))
 (let ((?x3207 (* l_1_3_38 l_1_3_38)))
 (let ((?x3205 (* l_1_3_37 l_1_3_37)))
 (let ((?x3203 (* l_1_3_36 l_1_3_36)))
 (let ((?x3206 (- (- (- (* (- l_1_3_34) l_1_3_34) (* l_1_3_35 l_1_3_35)) ?x3203) ?x3205)))
 (= (- (- (- (- ?x3206 ?x3207) ?x3209) ?x3211) ?x3213) 0.0)))))))))
(assert
 (>= l_1_3_1 0.0))
(assert
 (>= l_1_3_2 0.0))
(assert
 (>= l_1_3_3 0.0))
(assert
 (>= l_1_3_4 0.0))
(assert
 (>= l_1_3_5 0.0))
(assert
 (>= l_1_3_6 0.0))
(assert
 (>= l_1_3_8 0.0))
(assert
 (>= l_1_3_11 0.0))
(assert
 (>= l_1_3_15 0.0))
(assert
 (>= l_1_3_20 0.0))
(assert
 (>= l_1_3_26 0.0))
(assert
 (>= l_1_3_33 0.0))
(assert
 (>= l_1_3_41 0.0))
(check-sat)
(get-model)